50
    1     4     4
    2    46    46
    3    48    48
    4    19    19
    5     4     4
    6    20    20
    7    13    13
    8    50    50
    9    28    28
   10     6     6
   11    44    44
   12    41    41
   13     1     1
   14    20    20
   15     8     8
   16    10    10
   17    19    19
   18    45    45
   19    20    20
   20    33    33
   21     8     8
   22    45    45
   23    33    33
   24    45    45
   25    46    46
   26    13    13
   27    16    16
   28    42    42
   29    11    11
   30    21    21
   31     1     1
   32     2     2
   33    31    31
   34     8     8
   35    46    46
   36    32    32
   37    47    47
   38    37    37
   39     8     8
   40     6     6
   41    37    37
   42    20    20
   43    44    44
   44     5     5
   45     6     6
   46     2     2
   47    31    31
   48    14    14
   49    15    15
   50    43    43
398
